; benchmark generated from python API
(set-info :status unknown)
(declare-fun s () Int)
(define-funs-rec ( ( T2_08 ((x!1 Int)) Int)
                   ( b2_08 ((x!1 Int)) Int)
                   ( T2_02 ((x!1 Int)) Int)
                   ( p2_02 ((x!1 Int)) Int))
                 ( (mod ((_ b2_08 0) x!1) 2)
                   (let ((a!1 (- ((_ b2_08 0) (+ (div x!1 2) (mod x!1 2)))
                                 ((_ b2_08 0) (div x!1 2)))))
                     (ite (< x!1 2) x!1 a!1))
                   (let ((a!1 (/ (- 1.0 (^ (- 1) ((_ p2_02 0) x!1))) 2.0)))
                     (to_int a!1))
                   (ite (= x!1 0) 0 (+ ((_ p2_02 0) (div x!1 2)) (mod x!1 2)))))
(assert
 (forall ((n Int) )(let ((?x411 ((_ T2_08 0) n)))
 (let (($x407 (= ?x411 n)))
 (let ((?x410 ((_ T2_02 0) n)))
 (let (($x413 (= ?x410 n)))
 (let (($x424 (and $x413 $x407)))
 (let (($x387 (< n s)))
 (let (($x426 (>= n 0)))
 (let (($x428 (and $x426 $x387)))
 (=> $x428 $x424))))))))))
 )
(assert
 (forall ((n Int) )(let ((?x411 ((_ T2_08 0) n)))
(let ((?x410 ((_ T2_02 0) n)))
(let (($x421 (= ?x410 ?x411)))
(let (($x426 (>= n 0)))
(=> $x426 $x421))))))
)
(check-sat)
